          28
          60
           1           7           5
           2          14           5
           3          14           8
           4           4           8
           5          21          13
           6           7          11
           7          14          11
           8          14           5
           9           4           5
          10          18           3
          11          21           3
          12          17          11
          13           4          11
          14           7           4
          15           5           4
          16           6           7
          17          18           5
          18           3           5
          19           7           3
          20           5           3
          21          18           4
          22           3           4
          23          12           2
          24           6           2
          25          18           5
          26          21           5
          27          17           3
          28           4           3
